33D32945 STP File, STP Format Version 1.0

SECTION Comments
Name "edge_n12_d3_s18"
Problem "Euclidean Steiner Tree Problem"
Remark "Generated with STPGenerator. 3 dimensions."
END

SECTION Graph
Nodes 12
END

SECTION Coordinates
DDD 0 0.9290727782 0.9290727782 0.9290727782
DDD 1 0.9129959489 0.9129959489 0.9129959489
DDD 2 0.9238626137 0.9238626137 0.9238626137
DDD 3 0.2359872904 0.2359872904 0.2359872904
DDD 4 0.7857724450 0.7857724450 0.7857724450
DDD 5 0.9465178470 0.9465178470 0.9465178470
DDD 6 0.9674219824 0.9674219824 0.9674219824
DDD 7 0.2784534135 0.2784534135 0.2784534135
DDD 8 0.4652112594 0.4652112594 0.4652112594
DDD 9 0.4872422654 0.4872422654 0.4872422654
DDD 10 0.1321992586 0.1321992586 0.1321992586
DDD 11 0.3741906497 0.3741906497 0.3741906497
END
